<instance format="XCSP3" type="CSP">
  <variables>
    <array id="kn" note="Create a variable that defines the knowledge nodes to be covered" size="[20]"> 0 1 </array>
    <array id="lo" note="Create a variable that defines the available Learning Objects" size="[94]"> 0 1 </array>
    <array id="kp" note="Create the variable that holds the various knowledge paths - This variable will be composed of 0s and 1s, where a 1 indicates a chosen learning path" size="[25]"> 0 1 </array>
  </variables>
  <constraints>
    <intension> eq(add(kp[0],kp[1],kp[2],kp[3],kp[4],kp[5],kp[6],kp[7],kp[8],kp[9],kp[10],kp[11],kp[12],kp[13],kp[14],kp[15],kp[16],kp[17],kp[18],kp[19],kp[20],kp[21],kp[22],kp[23],kp[24]),1) </intension>
    <intension> imp(eq(kp[0],1),eq(kn[0],1)) </intension>
    <intension> imp(eq(kp[0],1),eq(kn[6],1)) </intension>
    <intension> imp(eq(kp[0],1),eq(kn[14],1)) </intension>
    <intension> imp(eq(kp[0],1),eq(kn[18],1)) </intension>
    <intension> imp(eq(kp[0],1),eq(kn[17],1)) </intension>
    <intension> imp(eq(kp[0],1),eq(kn[11],1)) </intension>
    <intension> imp(eq(kp[0],1),eq(kn[8],1)) </intension>
    <intension> imp(eq(kp[0],1),eq(kn[19],1)) </intension>
    <intension> imp(eq(kp[1],1),eq(kn[0],1)) </intension>
    <intension> imp(eq(kp[1],1),eq(kn[6],1)) </intension>
    <intension> imp(eq(kp[1],1),eq(kn[5],1)) </intension>
    <intension> imp(eq(kp[1],1),eq(kn[9],1)) </intension>
    <intension> imp(eq(kp[1],1),eq(kn[2],1)) </intension>
    <intension> imp(eq(kp[1],1),eq(kn[7],1)) </intension>
    <intension> imp(eq(kp[1],1),eq(kn[12],1)) </intension>
    <intension> imp(eq(kp[1],1),eq(kn[8],1)) </intension>
    <intension> imp(eq(kp[1],1),eq(kn[11],1)) </intension>
    <intension> imp(eq(kp[1],1),eq(kn[18],1)) </intension>
    <intension> imp(eq(kp[1],1),eq(kn[17],1)) </intension>
    <intension> imp(eq(kp[1],1),eq(kn[15],1)) </intension>
    <intension> imp(eq(kp[1],1),eq(kn[19],1)) </intension>
    <intension> imp(eq(kp[2],1),eq(kn[0],1)) </intension>
    <intension> imp(eq(kp[2],1),eq(kn[5],1)) </intension>
    <intension> imp(eq(kp[2],1),eq(kn[9],1)) </intension>
    <intension> imp(eq(kp[2],1),eq(kn[18],1)) </intension>
    <intension> imp(eq(kp[2],1),eq(kn[11],1)) </intension>
    <intension> imp(eq(kp[2],1),eq(kn[16],1)) </intension>
    <intension> imp(eq(kp[2],1),eq(kn[12],1)) </intension>
    <intension> imp(eq(kp[2],1),eq(kn[15],1)) </intension>
    <intension> imp(eq(kp[2],1),eq(kn[14],1)) </intension>
    <intension> imp(eq(kp[2],1),eq(kn[6],1)) </intension>
    <intension> imp(eq(kp[2],1),eq(kn[2],1)) </intension>
    <intension> imp(eq(kp[2],1),eq(kn[4],1)) </intension>
    <intension> imp(eq(kp[2],1),eq(kn[10],1)) </intension>
    <intension> imp(eq(kp[2],1),eq(kn[7],1)) </intension>
    <intension> imp(eq(kp[2],1),eq(kn[13],1)) </intension>
    <intension> imp(eq(kp[2],1),eq(kn[8],1)) </intension>
    <intension> imp(eq(kp[2],1),eq(kn[17],1)) </intension>
    <intension> imp(eq(kp[2],1),eq(kn[19],1)) </intension>
    <intension> imp(eq(kp[3],1),eq(kn[0],1)) </intension>
    <intension> imp(eq(kp[3],1),eq(kn[6],1)) </intension>
    <intension> imp(eq(kp[3],1),eq(kn[5],1)) </intension>
    <intension> imp(eq(kp[3],1),eq(kn[10],1)) </intension>
    <intension> imp(eq(kp[3],1),eq(kn[7],1)) </intension>
    <intension> imp(eq(kp[3],1),eq(kn[12],1)) </intension>
    <intension> imp(eq(kp[3],1),eq(kn[16],1)) </intension>
    <intension> imp(eq(kp[3],1),eq(kn[13],1)) </intension>
    <intension> imp(eq(kp[3],1),eq(kn[4],1)) </intension>
    <intension> imp(eq(kp[3],1),eq(kn[1],1)) </intension>
    <intension> imp(eq(kp[3],1),eq(kn[2],1)) </intension>
    <intension> imp(eq(kp[3],1),eq(kn[9],1)) </intension>
    <intension> imp(eq(kp[3],1),eq(kn[15],1)) </intension>
    <intension> imp(eq(kp[3],1),eq(kn[17],1)) </intension>
    <intension> imp(eq(kp[3],1),eq(kn[8],1)) </intension>
    <intension> imp(eq(kp[3],1),eq(kn[11],1)) </intension>
    <intension> imp(eq(kp[3],1),eq(kn[18],1)) </intension>
    <intension> imp(eq(kp[3],1),eq(kn[14],1)) </intension>
    <intension> imp(eq(kp[3],1),eq(kn[19],1)) </intension>
    <intension> imp(eq(kp[4],1),eq(kn[0],1)) </intension>
    <intension> imp(eq(kp[4],1),eq(kn[18],1)) </intension>
    <intension> imp(eq(kp[4],1),eq(kn[14],1)) </intension>
    <intension> imp(eq(kp[4],1),eq(kn[6],1)) </intension>
    <intension> imp(eq(kp[4],1),eq(kn[19],1)) </intension>
    <intension> imp(eq(kp[5],1),eq(kn[0],1)) </intension>
    <intension> imp(eq(kp[5],1),eq(kn[6],1)) </intension>
    <intension> imp(eq(kp[5],1),eq(kn[5],1)) </intension>
    <intension> imp(eq(kp[5],1),eq(kn[4],1)) </intension>
    <intension> imp(eq(kp[5],1),eq(kn[10],1)) </intension>
    <intension> imp(eq(kp[5],1),eq(kn[7],1)) </intension>
    <intension> imp(eq(kp[5],1),eq(kn[13],1)) </intension>
    <intension> imp(eq(kp[5],1),eq(kn[16],1)) </intension>
    <intension> imp(eq(kp[5],1),eq(kn[11],1)) </intension>
    <intension> imp(eq(kp[5],1),eq(kn[19],1)) </intension>
    <intension> imp(eq(kp[6],1),eq(kn[0],1)) </intension>
    <intension> imp(eq(kp[6],1),eq(kn[11],1)) </intension>
    <intension> imp(eq(kp[6],1),eq(kn[8],1)) </intension>
    <intension> imp(eq(kp[6],1),eq(kn[19],1)) </intension>
    <intension> imp(eq(kp[7],1),eq(kn[0],1)) </intension>
    <intension> imp(eq(kp[7],1),eq(kn[11],1)) </intension>
    <intension> imp(eq(kp[7],1),eq(kn[19],1)) </intension>
    <intension> imp(eq(kp[8],1),eq(kn[0],1)) </intension>
    <intension> imp(eq(kp[8],1),eq(kn[18],1)) </intension>
    <intension> imp(eq(kp[8],1),eq(kn[17],1)) </intension>
    <intension> imp(eq(kp[8],1),eq(kn[19],1)) </intension>
    <intension> imp(eq(kp[9],1),eq(kn[0],1)) </intension>
    <intension> imp(eq(kp[9],1),eq(kn[2],1)) </intension>
    <intension> imp(eq(kp[9],1),eq(kn[9],1)) </intension>
    <intension> imp(eq(kp[9],1),eq(kn[5],1)) </intension>
    <intension> imp(eq(kp[9],1),eq(kn[4],1)) </intension>
    <intension> imp(eq(kp[9],1),eq(kn[10],1)) </intension>
    <intension> imp(eq(kp[9],1),eq(kn[8],1)) </intension>
    <intension> imp(eq(kp[9],1),eq(kn[17],1)) </intension>
    <intension> imp(eq(kp[9],1),eq(kn[11],1)) </intension>
    <intension> imp(eq(kp[9],1),eq(kn[18],1)) </intension>
    <intension> imp(eq(kp[9],1),eq(kn[3],1)) </intension>
    <intension> imp(eq(kp[9],1),eq(kn[1],1)) </intension>
    <intension> imp(eq(kp[9],1),eq(kn[19],1)) </intension>
    <intension> imp(eq(kp[10],1),eq(kn[0],1)) </intension>
    <intension> imp(eq(kp[10],1),eq(kn[11],1)) </intension>
    <intension> imp(eq(kp[10],1),eq(kn[15],1)) </intension>
    <intension> imp(eq(kp[10],1),eq(kn[12],1)) </intension>
    <intension> imp(eq(kp[10],1),eq(kn[8],1)) </intension>
    <intension> imp(eq(kp[10],1),eq(kn[19],1)) </intension>
    <intension> imp(eq(kp[11],1),eq(kn[0],1)) </intension>
    <intension> imp(eq(kp[11],1),eq(kn[2],1)) </intension>
    <intension> imp(eq(kp[11],1),eq(kn[1],1)) </intension>
    <intension> imp(eq(kp[11],1),eq(kn[19],1)) </intension>
    <intension> imp(eq(kp[12],1),eq(kn[0],1)) </intension>
    <intension> imp(eq(kp[12],1),eq(kn[6],1)) </intension>
    <intension> imp(eq(kp[12],1),eq(kn[2],1)) </intension>
    <intension> imp(eq(kp[12],1),eq(kn[1],1)) </intension>
    <intension> imp(eq(kp[12],1),eq(kn[19],1)) </intension>
    <intension> imp(eq(kp[13],1),eq(kn[0],1)) </intension>
    <intension> imp(eq(kp[13],1),eq(kn[18],1)) </intension>
    <intension> imp(eq(kp[13],1),eq(kn[15],1)) </intension>
    <intension> imp(eq(kp[13],1),eq(kn[17],1)) </intension>
    <intension> imp(eq(kp[13],1),eq(kn[11],1)) </intension>
    <intension> imp(eq(kp[13],1),eq(kn[1],1)) </intension>
    <intension> imp(eq(kp[13],1),eq(kn[3],1)) </intension>
    <intension> imp(eq(kp[13],1),eq(kn[19],1)) </intension>
    <intension> imp(eq(kp[14],1),eq(kn[0],1)) </intension>
    <intension> imp(eq(kp[14],1),eq(kn[1],1)) </intension>
    <intension> imp(eq(kp[14],1),eq(kn[11],1)) </intension>
    <intension> imp(eq(kp[14],1),eq(kn[15],1)) </intension>
    <intension> imp(eq(kp[14],1),eq(kn[16],1)) </intension>
    <intension> imp(eq(kp[14],1),eq(kn[14],1)) </intension>
    <intension> imp(eq(kp[14],1),eq(kn[18],1)) </intension>
    <intension> imp(eq(kp[14],1),eq(kn[17],1)) </intension>
    <intension> imp(eq(kp[14],1),eq(kn[19],1)) </intension>
    <intension> imp(eq(kp[15],1),eq(kn[0],1)) </intension>
    <intension> imp(eq(kp[15],1),eq(kn[6],1)) </intension>
    <intension> imp(eq(kp[15],1),eq(kn[14],1)) </intension>
    <intension> imp(eq(kp[15],1),eq(kn[16],1)) </intension>
    <intension> imp(eq(kp[15],1),eq(kn[12],1)) </intension>
    <intension> imp(eq(kp[15],1),eq(kn[15],1)) </intension>
    <intension> imp(eq(kp[15],1),eq(kn[13],1)) </intension>
    <intension> imp(eq(kp[15],1),eq(kn[8],1)) </intension>
    <intension> imp(eq(kp[15],1),eq(kn[11],1)) </intension>
    <intension> imp(eq(kp[15],1),eq(kn[17],1)) </intension>
    <intension> imp(eq(kp[15],1),eq(kn[18],1)) </intension>
    <intension> imp(eq(kp[15],1),eq(kn[3],1)) </intension>
    <intension> imp(eq(kp[15],1),eq(kn[1],1)) </intension>
    <intension> imp(eq(kp[15],1),eq(kn[19],1)) </intension>
    <intension> imp(eq(kp[16],1),eq(kn[0],1)) </intension>
    <intension> imp(eq(kp[16],1),eq(kn[2],1)) </intension>
    <intension> imp(eq(kp[16],1),eq(kn[7],1)) </intension>
    <intension> imp(eq(kp[16],1),eq(kn[12],1)) </intension>
    <intension> imp(eq(kp[16],1),eq(kn[15],1)) </intension>
    <intension> imp(eq(kp[16],1),eq(kn[9],1)) </intension>
    <intension> imp(eq(kp[16],1),eq(kn[5],1)) </intension>
    <intension> imp(eq(kp[16],1),eq(kn[6],1)) </intension>
    <intension> imp(eq(kp[16],1),eq(kn[14],1)) </intension>
    <intension> imp(eq(kp[16],1),eq(kn[18],1)) </intension>
    <intension> imp(eq(kp[16],1),eq(kn[3],1)) </intension>
    <intension> imp(eq(kp[16],1),eq(kn[1],1)) </intension>
    <intension> imp(eq(kp[16],1),eq(kn[11],1)) </intension>
    <intension> imp(eq(kp[16],1),eq(kn[17],1)) </intension>
    <intension> imp(eq(kp[16],1),eq(kn[19],1)) </intension>
    <intension> imp(eq(kp[17],1),eq(kn[0],1)) </intension>
    <intension> imp(eq(kp[17],1),eq(kn[6],1)) </intension>
    <intension> imp(eq(kp[17],1),eq(kn[19],1)) </intension>
    <intension> imp(eq(kp[18],1),eq(kn[0],1)) </intension>
    <intension> imp(eq(kp[18],1),eq(kn[18],1)) </intension>
    <intension> imp(eq(kp[18],1),eq(kn[14],1)) </intension>
    <intension> imp(eq(kp[18],1),eq(kn[7],1)) </intension>
    <intension> imp(eq(kp[18],1),eq(kn[2],1)) </intension>
    <intension> imp(eq(kp[18],1),eq(kn[9],1)) </intension>
    <intension> imp(eq(kp[18],1),eq(kn[15],1)) </intension>
    <intension> imp(eq(kp[18],1),eq(kn[13],1)) </intension>
    <intension> imp(eq(kp[18],1),eq(kn[16],1)) </intension>
    <intension> imp(eq(kp[18],1),eq(kn[11],1)) </intension>
    <intension> imp(eq(kp[18],1),eq(kn[19],1)) </intension>
    <intension> imp(eq(kp[19],1),eq(kn[0],1)) </intension>
    <intension> imp(eq(kp[19],1),eq(kn[11],1)) </intension>
    <intension> imp(eq(kp[19],1),eq(kn[15],1)) </intension>
    <intension> imp(eq(kp[19],1),eq(kn[17],1)) </intension>
    <intension> imp(eq(kp[19],1),eq(kn[8],1)) </intension>
    <intension> imp(eq(kp[19],1),eq(kn[19],1)) </intension>
    <intension> imp(eq(kp[20],1),eq(kn[0],1)) </intension>
    <intension> imp(eq(kp[20],1),eq(kn[11],1)) </intension>
    <intension> imp(eq(kp[20],1),eq(kn[15],1)) </intension>
    <intension> imp(eq(kp[20],1),eq(kn[16],1)) </intension>
    <intension> imp(eq(kp[20],1),eq(kn[13],1)) </intension>
    <intension> imp(eq(kp[20],1),eq(kn[7],1)) </intension>
    <intension> imp(eq(kp[20],1),eq(kn[12],1)) </intension>
    <intension> imp(eq(kp[20],1),eq(kn[8],1)) </intension>
    <intension> imp(eq(kp[20],1),eq(kn[19],1)) </intension>
    <intension> imp(eq(kp[21],1),eq(kn[0],1)) </intension>
    <intension> imp(eq(kp[21],1),eq(kn[18],1)) </intension>
    <intension> imp(eq(kp[21],1),eq(kn[11],1)) </intension>
    <intension> imp(eq(kp[21],1),eq(kn[17],1)) </intension>
    <intension> imp(eq(kp[21],1),eq(kn[8],1)) </intension>
    <intension> imp(eq(kp[21],1),eq(kn[15],1)) </intension>
    <intension> imp(eq(kp[21],1),eq(kn[13],1)) </intension>
    <intension> imp(eq(kp[21],1),eq(kn[16],1)) </intension>
    <intension> imp(eq(kp[21],1),eq(kn[14],1)) </intension>
    <intension> imp(eq(kp[21],1),eq(kn[6],1)) </intension>
    <intension> imp(eq(kp[21],1),eq(kn[19],1)) </intension>
    <intension> imp(eq(kp[22],1),eq(kn[0],1)) </intension>
    <intension> imp(eq(kp[22],1),eq(kn[11],1)) </intension>
    <intension> imp(eq(kp[22],1),eq(kn[1],1)) </intension>
    <intension> imp(eq(kp[22],1),eq(kn[3],1)) </intension>
    <intension> imp(eq(kp[22],1),eq(kn[18],1)) </intension>
    <intension> imp(eq(kp[22],1),eq(kn[15],1)) </intension>
    <intension> imp(eq(kp[22],1),eq(kn[9],1)) </intension>
    <intension> imp(eq(kp[22],1),eq(kn[5],1)) </intension>
    <intension> imp(eq(kp[22],1),eq(kn[10],1)) </intension>
    <intension> imp(eq(kp[22],1),eq(kn[8],1)) </intension>
    <intension> imp(eq(kp[22],1),eq(kn[17],1)) </intension>
    <intension> imp(eq(kp[22],1),eq(kn[19],1)) </intension>
    <intension> imp(eq(kp[23],1),eq(kn[0],1)) </intension>
    <intension> imp(eq(kp[23],1),eq(kn[1],1)) </intension>
    <intension> imp(eq(kp[23],1),eq(kn[2],1)) </intension>
    <intension> imp(eq(kp[23],1),eq(kn[4],1)) </intension>
    <intension> imp(eq(kp[23],1),eq(kn[10],1)) </intension>
    <intension> imp(eq(kp[23],1),eq(kn[7],1)) </intension>
    <intension> imp(eq(kp[23],1),eq(kn[14],1)) </intension>
    <intension> imp(eq(kp[23],1),eq(kn[19],1)) </intension>
    <intension> imp(eq(kp[24],1),eq(kn[0],1)) </intension>
    <intension> imp(eq(kp[24],1),eq(kn[6],1)) </intension>
    <intension> imp(eq(kp[24],1),eq(kn[5],1)) </intension>
    <intension> imp(eq(kp[24],1),eq(kn[10],1)) </intension>
    <intension> imp(eq(kp[24],1),eq(kn[4],1)) </intension>
    <intension> imp(eq(kp[24],1),eq(kn[9],1)) </intension>
    <intension> imp(eq(kp[24],1),eq(kn[2],1)) </intension>
    <intension> imp(eq(kp[24],1),eq(kn[1],1)) </intension>
    <intension> imp(eq(kp[24],1),eq(kn[11],1)) </intension>
    <intension> imp(eq(kp[24],1),eq(kn[18],1)) </intension>
    <intension> imp(eq(kp[24],1),eq(kn[19],1)) </intension>
    <intension> imp(eq(kp[0],1),and(eq(kn[1],0),eq(kn[2],0),eq(kn[3],0),eq(kn[4],0),eq(kn[5],0),eq(kn[7],0),eq(kn[9],0),eq(kn[10],0),eq(kn[12],0),eq(kn[13],0),eq(kn[15],0),eq(kn[16],0))) </intension>
    <intension> imp(eq(kp[1],1),and(eq(kn[1],0),eq(kn[3],0),eq(kn[4],0),eq(kn[10],0),eq(kn[13],0),eq(kn[14],0),eq(kn[16],0))) </intension>
    <intension> imp(eq(kp[2],1),and(eq(kn[1],0),eq(kn[3],0))) </intension>
    <intension> imp(eq(kp[3],1),eq(kn[3],0)) </intension>
    <intension> imp(eq(kp[4],1),and(eq(kn[1],0),eq(kn[2],0),eq(kn[3],0),eq(kn[4],0),eq(kn[5],0),eq(kn[7],0),eq(kn[8],0),eq(kn[9],0),eq(kn[10],0),eq(kn[11],0),eq(kn[12],0),eq(kn[13],0),eq(kn[15],0),eq(kn[16],0),eq(kn[17],0))) </intension>
    <intension> imp(eq(kp[5],1),and(eq(kn[1],0),eq(kn[2],0),eq(kn[3],0),eq(kn[8],0),eq(kn[9],0),eq(kn[12],0),eq(kn[14],0),eq(kn[15],0),eq(kn[17],0),eq(kn[18],0))) </intension>
    <intension> imp(eq(kp[6],1),and(eq(kn[1],0),eq(kn[2],0),eq(kn[3],0),eq(kn[4],0),eq(kn[5],0),eq(kn[6],0),eq(kn[7],0),eq(kn[9],0),eq(kn[10],0),eq(kn[12],0),eq(kn[13],0),eq(kn[14],0),eq(kn[15],0),eq(kn[16],0),eq(kn[17],0),eq(kn[18],0))) </intension>
    <intension> imp(eq(kp[7],1),and(eq(kn[1],0),eq(kn[2],0),eq(kn[3],0),eq(kn[4],0),eq(kn[5],0),eq(kn[6],0),eq(kn[7],0),eq(kn[8],0),eq(kn[9],0),eq(kn[10],0),eq(kn[12],0),eq(kn[13],0),eq(kn[14],0),eq(kn[15],0),eq(kn[16],0),eq(kn[17],0),eq(kn[18],0))) </intension>
    <intension> imp(eq(kp[8],1),and(eq(kn[1],0),eq(kn[2],0),eq(kn[3],0),eq(kn[4],0),eq(kn[5],0),eq(kn[6],0),eq(kn[7],0),eq(kn[8],0),eq(kn[9],0),eq(kn[10],0),eq(kn[11],0),eq(kn[12],0),eq(kn[13],0),eq(kn[14],0),eq(kn[15],0),eq(kn[16],0))) </intension>
    <intension> imp(eq(kp[9],1),and(eq(kn[6],0),eq(kn[7],0),eq(kn[12],0),eq(kn[13],0),eq(kn[14],0),eq(kn[15],0),eq(kn[16],0))) </intension>
    <intension> imp(eq(kp[10],1),and(eq(kn[1],0),eq(kn[2],0),eq(kn[3],0),eq(kn[4],0),eq(kn[5],0),eq(kn[6],0),eq(kn[7],0),eq(kn[9],0),eq(kn[10],0),eq(kn[13],0),eq(kn[14],0),eq(kn[16],0),eq(kn[17],0),eq(kn[18],0))) </intension>
    <intension> imp(eq(kp[11],1),and(eq(kn[3],0),eq(kn[4],0),eq(kn[5],0),eq(kn[6],0),eq(kn[7],0),eq(kn[8],0),eq(kn[9],0),eq(kn[10],0),eq(kn[11],0),eq(kn[12],0),eq(kn[13],0),eq(kn[14],0),eq(kn[15],0),eq(kn[16],0),eq(kn[17],0),eq(kn[18],0))) </intension>
    <intension> imp(eq(kp[12],1),and(eq(kn[3],0),eq(kn[4],0),eq(kn[5],0),eq(kn[7],0),eq(kn[8],0),eq(kn[9],0),eq(kn[10],0),eq(kn[11],0),eq(kn[12],0),eq(kn[13],0),eq(kn[14],0),eq(kn[15],0),eq(kn[16],0),eq(kn[17],0),eq(kn[18],0))) </intension>
    <intension> imp(eq(kp[13],1),and(eq(kn[2],0),eq(kn[4],0),eq(kn[5],0),eq(kn[6],0),eq(kn[7],0),eq(kn[8],0),eq(kn[9],0),eq(kn[10],0),eq(kn[12],0),eq(kn[13],0),eq(kn[14],0),eq(kn[16],0))) </intension>
    <intension> imp(eq(kp[14],1),and(eq(kn[2],0),eq(kn[3],0),eq(kn[4],0),eq(kn[5],0),eq(kn[6],0),eq(kn[7],0),eq(kn[8],0),eq(kn[9],0),eq(kn[10],0),eq(kn[12],0),eq(kn[13],0))) </intension>
    <intension> imp(eq(kp[15],1),and(eq(kn[2],0),eq(kn[4],0),eq(kn[5],0),eq(kn[7],0),eq(kn[9],0),eq(kn[10],0))) </intension>
    <intension> imp(eq(kp[16],1),and(eq(kn[4],0),eq(kn[8],0),eq(kn[10],0),eq(kn[13],0),eq(kn[16],0))) </intension>
    <intension> imp(eq(kp[17],1),and(eq(kn[1],0),eq(kn[2],0),eq(kn[3],0),eq(kn[4],0),eq(kn[5],0),eq(kn[7],0),eq(kn[8],0),eq(kn[9],0),eq(kn[10],0),eq(kn[11],0),eq(kn[12],0),eq(kn[13],0),eq(kn[14],0),eq(kn[15],0),eq(kn[16],0),eq(kn[17],0),eq(kn[18],0))) </intension>
    <intension> imp(eq(kp[18],1),and(eq(kn[1],0),eq(kn[3],0),eq(kn[4],0),eq(kn[5],0),eq(kn[6],0),eq(kn[8],0),eq(kn[10],0),eq(kn[12],0),eq(kn[17],0))) </intension>
    <intension> imp(eq(kp[19],1),and(eq(kn[1],0),eq(kn[2],0),eq(kn[3],0),eq(kn[4],0),eq(kn[5],0),eq(kn[6],0),eq(kn[7],0),eq(kn[9],0),eq(kn[10],0),eq(kn[12],0),eq(kn[13],0),eq(kn[14],0),eq(kn[16],0),eq(kn[18],0))) </intension>
    <intension> imp(eq(kp[20],1),and(eq(kn[1],0),eq(kn[2],0),eq(kn[3],0),eq(kn[4],0),eq(kn[5],0),eq(kn[6],0),eq(kn[9],0),eq(kn[10],0),eq(kn[14],0),eq(kn[17],0),eq(kn[18],0))) </intension>
    <intension> imp(eq(kp[21],1),and(eq(kn[1],0),eq(kn[2],0),eq(kn[3],0),eq(kn[4],0),eq(kn[5],0),eq(kn[7],0),eq(kn[9],0),eq(kn[10],0),eq(kn[12],0))) </intension>
    <intension> imp(eq(kp[22],1),and(eq(kn[2],0),eq(kn[4],0),eq(kn[6],0),eq(kn[7],0),eq(kn[12],0),eq(kn[13],0),eq(kn[14],0),eq(kn[16],0))) </intension>
    <intension> imp(eq(kp[23],1),and(eq(kn[3],0),eq(kn[5],0),eq(kn[6],0),eq(kn[8],0),eq(kn[9],0),eq(kn[11],0),eq(kn[12],0),eq(kn[13],0),eq(kn[15],0),eq(kn[16],0),eq(kn[17],0),eq(kn[18],0))) </intension>
    <intension> imp(eq(kp[24],1),and(eq(kn[3],0),eq(kn[7],0),eq(kn[8],0),eq(kn[12],0),eq(kn[13],0),eq(kn[14],0),eq(kn[15],0),eq(kn[16],0),eq(kn[17],0))) </intension>
    <intension> if(eq(kn[0],1),or(lo[19],lo[20],lo[21],lo[22],lo[23],lo[24],lo[25]),eq(kn[0],0)) </intension>
    <intension> if(eq(kn[1],1),or(lo[87],lo[88],lo[89],lo[90]),eq(kn[1],0)) </intension>
    <intension> if(eq(kn[2],1),or(lo[35],lo[37],lo[38],lo[39]),eq(kn[2],0)) </intension>
    <intension> if(eq(kn[3],1),or(lo[68],lo[69],lo[70],lo[71]),eq(kn[3],0)) </intension>
    <intension> if(eq(kn[4],1),or(lo[33],lo[34],lo[36],lo[61],lo[72]),eq(kn[4],0)) </intension>
    <intension> if(eq(kn[5],1),or(lo[5],lo[6],lo[7],lo[8],lo[9],lo[32]),eq(kn[5],0)) </intension>
    <intension> if(eq(kn[6],1),or(lo[40],lo[41],lo[42],lo[43],lo[44],lo[45],lo[46]),eq(kn[6],0)) </intension>
    <intension> if(eq(kn[7],1),or(lo[52],lo[53],lo[54],lo[55]),eq(kn[7],0)) </intension>
    <intension> if(eq(kn[8],1),or(lo[73],lo[74],lo[75]),eq(kn[8],0)) </intension>
    <intension> if(eq(kn[9],1),or(lo[76],lo[77],lo[78],lo[79]),eq(kn[9],0)) </intension>
    <intension> if(eq(kn[10],1),or(lo[56],lo[57],lo[58],lo[59],lo[60]),eq(kn[10],0)) </intension>
    <intension> if(eq(kn[11],1),or(lo[10],lo[11],lo[12],lo[13]),eq(kn[11],0)) </intension>
    <intension> if(eq(kn[12],1),or(lo[83],lo[84],lo[85],lo[86]),eq(kn[12],0)) </intension>
    <intension> if(eq(kn[13],1),or(lo[14],lo[15],lo[16],lo[17],lo[18]),eq(kn[13],0)) </intension>
    <intension> if(eq(kn[14],1),or(lo[62],lo[63],lo[64],lo[65],lo[66],lo[67]),eq(kn[14],0)) </intension>
    <intension> if(eq(kn[15],1),or(lo[0],lo[1],lo[2],lo[3],lo[4]),eq(kn[15],0)) </intension>
    <intension> if(eq(kn[16],1),or(lo[91],lo[92],lo[93]),eq(kn[16],0)) </intension>
    <intension> if(eq(kn[17],1),or(lo[47],lo[48],lo[49],lo[50],lo[51]),eq(kn[17],0)) </intension>
    <intension> if(eq(kn[18],1),or(lo[80],lo[81],lo[82]),eq(kn[18],0)) </intension>
    <intension> if(eq(kn[19],1),or(lo[26],lo[27],lo[28],lo[29],lo[30],lo[31]),eq(kn[19],0)) </intension>
    <sum>
      <list> lo[] kn[] </list>
      <coeffs> 1x94 -1x20 </coeffs>
      <condition> (eq,0) </condition>
    </sum>
  </constraints>
</instance>
